Cs8 Ag4 Bi4 I24
1.0
  12.2419485199999993    0.0000000000000000    0.0000000000000007
   0.0000000000000020   12.2419485199999993    0.0000000000000007
   0.0000000000000000    0.0000000000000000   12.2419485199999993
Cs Ag Bi I
8 4 4 24
direct
   0.2500000000000000    0.2500000000000000    0.7500000000000000 Cs
   0.2500000000000000    0.7500000000000000    0.7500000000000000 Cs
   0.2500000000000000    0.7500000000000000    0.2500000000000000 Cs
   0.2500000000000000    0.2500000000000000    0.2500000000000000 Cs
   0.7500000000000000    0.2500000000000000    0.2500000000000000 Cs
   0.7500000000000000    0.7500000000000000    0.2500000000000000 Cs
   0.7500000000000000    0.7500000000000000    0.7500000000000000 Cs
   0.7500000000000000    0.2500000000000000    0.7500000000000000 Cs
   0.5000000000000000    0.0000000000000000    0.0000000000000000 Ag
   0.5000000000000000    0.5000000000000000    0.5000000000000000 Ag
   0.0000000000000000    0.0000000000000000    0.5000000000000000 Ag
   0.0000000000000000    0.5000000000000000    0.0000000000000000 Ag
   0.0000000000000000    0.0000000000000000    0.0000000000000000 Bi
   0.0000000000000000    0.5000000000000000    0.5000000000000000 Bi
   0.5000000000000000    0.0000000000000000    0.5000000000000000 Bi
   0.5000000000000000    0.5000000000000000    0.0000000000000000 Bi
   0.2532789800000000    0.0000000000000000    0.0000000000000000 I
   0.5000000000000000    0.0000000000000000    0.7532789800000000 I
   0.7467210200000000    0.0000000000000000    0.0000000000000000 I
   0.5000000000000000    0.7532789800000000    0.0000000000000000 I
   0.5000000000000000    0.2467210200000000    0.0000000000000000 I
   0.0000000000000000    0.0000000000000000    0.7467210200000000 I
   0.2532789800000000    0.5000000000000000    0.5000000000000000 I
   0.5000000000000000    0.5000000000000000    0.2532789800000000 I
   0.7467210200000000    0.5000000000000000    0.5000000000000000 I
   0.5000000000000000    0.2532789800000000    0.5000000000000000 I
   0.5000000000000000    0.7467210200000000    0.5000000000000000 I
   0.0000000000000000    0.5000000000000000    0.2467210200000000 I
   0.7532789800000000    0.0000000000000000    0.5000000000000000 I
   0.0000000000000000    0.0000000000000000    0.2532789800000000 I
   0.2467210200000000    0.0000000000000000    0.5000000000000000 I
   0.0000000000000000    0.7532789800000000    0.5000000000000000 I
   0.0000000000000000    0.2467210200000000    0.5000000000000000 I
   0.5000000000000000    0.0000000000000000    0.2467210200000000 I
   0.7532789800000000    0.5000000000000000    0.0000000000000000 I
   0.0000000000000000    0.5000000000000000    0.7532789800000000 I
   0.2467210200000000    0.5000000000000000    0.0000000000000000 I
   0.0000000000000000    0.2532789800000000    0.0000000000000000 I
   0.0000000000000000    0.7467210200000000    0.0000000000000000 I
   0.5000000000000000    0.5000000000000000    0.7467210200000000 I
